solution status: optimal solution found
objective value:                                   68
x$P0#2#9                                            1 	(obj:0)
x$P2#1#12                                           1 	(obj:0)
x$P3#1#12                                           1 	(obj:0)
x$P9#1#12                                           1 	(obj:0)
x$P10#1#12                                          1 	(obj:0)
x$P46#1#12                                          1 	(obj:0)
x$P47#1#12                                          1 	(obj:0)
x$P52#2#9                                           1 	(obj:0)
x$P53#1#9                                           1 	(obj:0)
x$P55#1#9                                           1 	(obj:0)
x$P56#1#9                                           1 	(obj:0)
x$P58#1#15                                          1 	(obj:0)
x$P74#1#9                                           1 	(obj:0)
x$P75#1#15                                          1 	(obj:0)
x$P79#1#12                                          1 	(obj:0)
x$P82#1#9                                           1 	(obj:0)
x$P85#1#12                                          1 	(obj:0)
x$P87#1#12                                          1 	(obj:0)
x$P89#4#9                                           1 	(obj:0)
x$P99#2#9                                           1 	(obj:0)
x$P103#1#15                                         1 	(obj:0)
x$P106#3#12                                         1 	(obj:0)
x$P107#1#12                                         1 	(obj:0)
x$P110#1#12                                         1 	(obj:0)
x$P111#3#9                                          1 	(obj:0)
x$P112#3#15                                         1 	(obj:0)
x$P119#1#9                                          1 	(obj:0)
x$P120#1#9                                          1 	(obj:0)
x$P129#2#9                                          1 	(obj:0)
x$P132#2#15                                         1 	(obj:0)
x$P134#3#9                                          1 	(obj:0)
x$P135#1#9                                          1 	(obj:0)
x$P136#1#9                                          1 	(obj:0)
x$P139#1#9                                          1 	(obj:0)
x$P140#2#12                                         1 	(obj:0)
x$P141#1#12                                         1 	(obj:0)
x$P143#1#9                                          1 	(obj:0)
x$P147#1#12                                         1 	(obj:0)
x$P152#1#12                                         1 	(obj:0)
x$P153#2#15                                         1 	(obj:0)
x$P154#2#15                                         1 	(obj:0)
x$P156#2#12                                         1 	(obj:0)
x$P157#4#9                                          1 	(obj:0)
x$P161#1#12                                         1 	(obj:0)
x$P163#1#9                                          1 	(obj:0)
x$P164#1#9                                          1 	(obj:0)
x$P166#2#18                                         1 	(obj:0)
x$P168#1#9                                          1 	(obj:0)
x$P170#2#9                                          1 	(obj:0)
x$P172#2#18                                         1 	(obj:0)
x$P173#2#15                                         1 	(obj:0)
x$P174#4#12                                         1 	(obj:0)
x$P175#1#9                                          1 	(obj:0)
x$P176#2#18                                         1 	(obj:0)
x$P177#2#18                                         1 	(obj:0)
x$P183#1#9                                          1 	(obj:0)
x$P184#3#12                                         1 	(obj:0)
x$P185#2#12                                         1 	(obj:0)
x$P192#1#12                                         1 	(obj:0)
x$P193#1#12                                         1 	(obj:0)
x$P195#1#9                                          1 	(obj:0)
x$P197#1#12                                         1 	(obj:0)
x$P198#1#9                                          1 	(obj:0)
x$P201#2#15                                         1 	(obj:0)
x$P202#1#12                                         1 	(obj:0)
x$P205#2#9                                          1 	(obj:0)
x$P206#1#12                                         1 	(obj:0)
x$P207#1#9                                          1 	(obj:0)
y$P0                                                1 	(obj:1)
y$P2                                                1 	(obj:1)
y$P3                                                1 	(obj:1)
y$P9                                                1 	(obj:1)
y$P10                                               1 	(obj:1)
y$P46                                               1 	(obj:1)
y$P47                                               1 	(obj:1)
y$P52                                               1 	(obj:1)
y$P53                                               1 	(obj:1)
y$P55                                               1 	(obj:1)
y$P56                                               1 	(obj:1)
y$P58                                               1 	(obj:1)
y$P74                                               1 	(obj:1)
y$P75                                               1 	(obj:1)
y$P79                                               1 	(obj:1)
y$P82                                               1 	(obj:1)
y$P85                                               1 	(obj:1)
y$P87                                               1 	(obj:1)
y$P89                                               1 	(obj:1)
y$P99                                               1 	(obj:1)
y$P103                                              1 	(obj:1)
y$P106                                              1 	(obj:1)
y$P107                                              1 	(obj:1)
y$P110                                              1 	(obj:1)
y$P111                                              1 	(obj:1)
y$P112                                              1 	(obj:1)
y$P119                                              1 	(obj:1)
y$P120                                              1 	(obj:1)
y$P129                                              1 	(obj:1)
y$P132                                              1 	(obj:1)
y$P134                                              1 	(obj:1)
y$P135                                              1 	(obj:1)
y$P136                                              1 	(obj:1)
y$P139                                              1 	(obj:1)
y$P140                                              1 	(obj:1)
y$P141                                              1 	(obj:1)
y$P143                                              1 	(obj:1)
y$P147                                              1 	(obj:1)
y$P152                                              1 	(obj:1)
y$P153                                              1 	(obj:1)
y$P154                                              1 	(obj:1)
y$P156                                              1 	(obj:1)
y$P157                                              1 	(obj:1)
y$P161                                              1 	(obj:1)
y$P163                                              1 	(obj:1)
y$P164                                              1 	(obj:1)
y$P166                                              1 	(obj:1)
y$P168                                              1 	(obj:1)
y$P170                                              1 	(obj:1)
y$P172                                              1 	(obj:1)
y$P173                                              1 	(obj:1)
y$P174                                              1 	(obj:1)
y$P175                                              1 	(obj:1)
y$P176                                              1 	(obj:1)
y$P177                                              1 	(obj:1)
y$P183                                              1 	(obj:1)
y$P184                                              1 	(obj:1)
y$P185                                              1 	(obj:1)
y$P192                                              1 	(obj:1)
y$P193                                              1 	(obj:1)
y$P195                                              1 	(obj:1)
y$P197                                              1 	(obj:1)
y$P198                                              1 	(obj:1)
y$P201                                              1 	(obj:1)
y$P202                                              1 	(obj:1)
y$P205                                              1 	(obj:1)
y$P206                                              1 	(obj:1)
y$P207                                              1 	(obj:1)
